23 75
18 20
16 17
21 22
4 12
4 21
5 10
8 9
0 5
14 22
0 14
11 14
10 18
19 21
1 12
0 20
2 17
1 15
1 21
13 17
2 20
11 20
7 16
16 19
7 22
18 22
3 9
4 5
4 8
12 21
14 18
4 17
14 15
5 12
14 21
5 18
2 4
1 2
9 13
0 10
11 16
9 22
0 19
2 16
11 13
2 19
13 19
7 9
6 13
2 22
16 21
6 10
7 15
15 22
7 21
7 14
14 17
5 14
3 17
5 8
14 20
9 12
0 3
1 4
10 13
8 13
8 10
2 3
1 13
11 15
0 21
19 22
2 15
15 18
7 8
1 22
